15 3 
1684	1684	1684	
741	804	844	
247	185	187	
652	863	944	
802	303	317	
827	96	104	
209	299	305	
471	304	325	
800	464	470	
142	167	182	
725	831	851	
274	704	761	
473	14	15	
181	706	763	
344	315	333	
367	682	713	
